webassembly/ejemplos_dzn/10/folder10_json_50.dzn
TERM = { '.', 's(2)', 'in_1', 'local_0', 'in_6', 'in_2', 'in_4', 'in_3', 'in_8', 's(1)', 's(0)', 'in_7', 'in_5', 'in_0'};
null = '.';
s = 10;
n = 14;
ndeps = 7;
max_registers_sz = 4;
NR = 1;
registers = [|'local_0', 'in_7'|];
dependencies = [|'i32.store8_0', 'i32.load16_u_1', |'i32.store8_0', 'i32.load16_u_2', |'i32.load16_u_1', 'i32.store16_4', |'i32.load16_u_2', 'i32.store16_4', |'i32.store16_4', 'i32.load8_u_6', |'i32.load8_u_6', 'i32.store8_7', |'i32.store8_7', 'i32.store_9'|];
GET_ENUM = { GET1, GET2, GET3, GET4, GET5};
SET_ENUM = { SET1, SET2, SET3, SET4, SET5};
TEE_ENUM = { TEE1, TEE2, TEE3, TEE4, TEE5};
N = 7;
OP = { 'i32.store8_0', 'i32.load16_u_1', 'i32.load16_u_2', 'i32.store16_4', 'i32.load8_u_6', 'i32.store8_7', 'i32.store_9' };
in_ops = [2, 1, 1, 2, 1, 2, 2 ];
out_ops = [0, 1, 1, 0, 1, 0, 0 ];
in1 = ['in_0', 'in_2', 's(0)', 'in_3', 'in_5', 's(2)', 'in_7' ];
in2 = ['in_1', '.', '.', 'in_4', '.', 'in_6', 'in_8' ];
in3 = ['.', '.', '.', '.', '.', '.', '.' ];
out1 = ['.', 's(0)', 's(1)', '.', 's(2)', '.', '.' ];
out2 = ['.', '.', '.', '.', '.', '.', '.' ];
out3 = ['.', '.', '.', '.', '.', '.', '.' ];
comm = [false, false, false, false, false, false, false ];
gas = [1, 1, 1, 1, 1, 1, 1 ];
sz = [1, 1, 1, 1, 1, 1, 1 ];
stor = [true, false, false, true, false, true, true ];
lb = [ 1, 1, 1, 1, 1, 1, 1 ];
ub = [ 10, 10, 10, 10, 10, 10, 10 ];
startstack = [ 'in_0', 'in_1', 'in_2', 'in_3', 'in_4', 'in_5', 'in_6', 'in_7', 'in_8', null, null, null, null, null ];
endstack = [ null, null, null, null, null, null, null, null, null, null, null, null, null, null ];
